
Log started (V5.0) Fri Jul 17 12:15:12 1998

CPLEX Error  1423: Could not open file 'tmp.lop' for reading.
CPLEX Error  1423: Could not open file 'tmp.lop.lp' for reading.
No file read.

Problem 'tmp.lp' read.
Read time =   -0.00 sec.
Duplicate columns C8 and C2 make problem unbounded.
Presolve time =   -0.00 sec.
CPLEX Error  1101: Presolve determines problem is infeasible or unbounded.
Duplicate columns C8 and C2 make problem unbounded.
Presolve time =   -0.00 sec.
CPLEX Error  1101: Presolve determines problem is infeasible or unbounded.
Not a MIP.
Duplicate columns C8 and C2 make problem unbounded.
Presolve time =   -0.00 sec.
CPLEX Error  1101: Presolve determines problem is infeasible or unbounded.
New value for presolve indicator: no
Duplicate columns C8 and C2 make problem unbounded.
Presolve time =    0.01 sec.
CPLEX Error  1101: Presolve determines problem is infeasible or unbounded.

Problem 'tmp.lp' read.
Read time =   -0.00 sec.
Duplicate columns C8 and C2 make problem unbounded.
Presolve time =   -0.00 sec.
CPLEX Error  1101: Presolve determines problem is infeasible or unbounded.

Problem 'tmp.lp' read.
Read time =    0.01 sec.
Duplicate columns C8 and C2 make problem unbounded.
Presolve time =   -0.00 sec.
CPLEX Error  1101: Presolve determines problem is infeasible or unbounded.

Problem 'tmp.lp' read.
Read time =    0.01 sec.
Duplicate columns C8 and C2 make problem unbounded.
Presolve time =    0.00 sec.
CPLEX Error  1101: Presolve determines problem is infeasible or unbounded.

Problem 'tmp.lp' read.
Read time =    0.00 sec.
Tried aggregator 1 time.
Reduced presolve eliminated 0 rows and 1 columns.
Reduced LP has 7 rows, 13 columns, and 37 nonzeros.
Presolve time =    0.00 sec.

Iteration log . . .
Iteration:     1    Objective     =            36.000000
Iteration:     7    Objective     =           156.116667

Primal - Unbounded:  Objective =    1.5611666667e+02
Solution time =    0.00 sec.  Iterations = 7 (0)
Diverging variable = C13

New value for presolve indicator: no

Problem 'tmp.lp' read.
Read time =    0.01 sec.
Duplicate columns C8 and C2 make problem unbounded.
Presolve time =   -0.00 sec.
CPLEX Error  1101: Presolve determines problem is infeasible or unbounded.

Log started (V5.0) Fri Jul 17 12:32:34 1998

CPLEX Error  1423: Could not open file 'tmp1.lp' for reading.
No file read.
CPLEX Error  1423: Could not open file 'tmp1.lp' for reading.
No file read.
CPLEX Error  1436: Max or Min missing.
No file read.

Problem 'tmp1.lp' read.
Read time =    0.01 sec.
Primal unbounded due to dual bounds, variable 'C2'.
Presolve time =   -0.00 sec.
CPLEX Error  1101: Presolve determines problem is infeasible or unbounded.
New value for preprocessing dependency check indicator: yes
Primal unbounded due to dual bounds, variable 'C2'.
Presolve time =   -0.00 sec.
CPLEX Error  1101: Presolve determines problem is infeasible or unbounded.
Primal unbounded due to dual bounds, variable 'C2'.
Presolve time =   -0.00 sec.
CPLEX Error  1101: Presolve determines problem is infeasible or unbounded.
Primal unbounded due to dual bounds, variable 'C2'.
Presolve time =    0.01 sec.
CPLEX Error  1101: Presolve determines problem is infeasible or unbounded.
New value for preprocessing dual indicator: yes
Primal unbounded due to dual bounds, variable 'C2'.
Presolve time =    0.00 sec.
CPLEX Error  1101: Presolve determines problem is infeasible or unbounded.

Log started (V5.0) Fri Jul 17 13:46:02 1998


Problem 'tmp.lp' read.
Read time =    0.00 sec.
Duplicate columns C8 and C2 make problem unbounded.
Presolve time =    0.00 sec.
CPLEX Error  1101: Presolve determines problem is infeasible or unbounded.
